\ Model (null)_copy
\ LP format - for model browsing. Use MPS format to capture full model detail.
Minimize
 
Subject To
 C3: X946 + X2184 + X3422 = 1
 C4: X1239 + X2477 + X3715 = 1
 C33: X2 + 99999 X74 <= 100001
 C41: X2 + X3 - 99999 X78 >= -99988
 C46: X2 + X3 + 99999 X80 <= 100002
 C198: X2 + X3 + 99999 X234 >= 8
 C642: X653 + X946 + X1239 = 1
 C645: - 99999 X653 + X945 <= 0
 C653: - X674 - X684 - X694 - X733 - X753 - X763 - X802 - X812 - X832
   - X871 - X881 - X891 - 99999 X934 - X935 - X936 + X945 >= -99999
 C656: - X655 - X724 - X793 - X862 + 4 X931 >= 0
 C670: - X84 + X655 >= 0
 C680: X654 + X655 + X656 + X657 - 4 X658 <= 0
 C698: X683 + X801 <= 1
 C712: 99999 X658 - 2 X660 - 2 X662 + X705 <= 99999
 C713: - 99999 X658 - 2 X660 - 2 X662 + X705 >= -99999
 C714: 99999 X658 - 4 X659 - 8 X660 - 8 X661 - 4 X662 + X706 <= 99999
 C715: - 99999 X658 - 4 X659 - 8 X660 - 8 X661 - 4 X662 + X706 >= -99999
 C716: - 99999 X703 - 1.414213562373095 X709 - X710 + X935 >= -99999
 C717: X2 - X705 - X711 = 0
 C718: X3 - X706 - X712 = 0
 C719: X711 - X712 - X713 = 0
 C722: - 99999 X704 - 1.414213562373095 X717 - X718 + X936 >= -99999
 C723: X705 - X719 = -2
 C725: X715 - X716 - X721 = 0
 C726: - X715 + X717 - 99999 X722 >= -99999
 C727: - X716 + X717 + 99999 X722 >= 0
 C728: - X235 + X723 <= 0
 C735: - X238 + X724 <= 0
 C744: X725 <= 0
 C747: X726 <= 0
 C749: X723 + X724 + X725 + X726 - X727 >= 0
 C750: X930 + X931 + X932 + X933 - 4 X934 <= 0
 C846: 99999 X796 - 7 X797 - 10 X798 - 7 X799 - 10 X800 + X843 <= 99999
 C847: - 99999 X796 - 7 X797 - 10 X798 - 7 X799 - 10 X800 + X843 >= -99999
 C848: 99999 X796 - 3 X798 - 3 X799 + X844 <= 99999
 C849: - 99999 X796 - 3 X798 - 3 X799 + X844 >= -99999
 C850: - 99999 X841 - 1.414213562373095 X847 - X848 + X935 >= -99999
 C851: X2 - X843 - X849 = 0
 C852: X3 - X844 - X850 = 0
 C854: - X845 + X847 - 99999 X852 >= -99999
 C855: - X846 + X847 + 99999 X852 >= 0
 C856: - 99999 X842 - 1.414213562373095 X855 - X856 + X936 >= -99999
 C857: X843 - X857 = -2
 C858: X844 - X858 = 6
 C859: X853 - X854 - X859 = 0
 C1511: X1532 + 99999 X1535 <= 100001
 C1519: X1532 + X1533 - 99999 X1539 >= -99988
 C1524: X1532 + X1533 + 99999 X1541 <= 100002
 C1688: X1532 + 99999 X1705 >= 11
 C1692: X1533 - 99999 X1707 <= -1
 C1775: X1532 + 99999 X1790 >= 13
 C1777: X1533 + 99999 X1791 >= 8
 C1856: X1891 + X2184 + X2477 = 1
 C1859: - 99999 X1891 + X2183 <= 0
 C1867: - X1912 - X1922 - X1932 - X1971 - X1991 - X2001 - X2040 - X2050
   - X2070 - X2109 - X2119 - X2129 - 99999 X2172 - X2173 - X2174 + X2183
   >= -99999
 C1870: - X1893 - X1962 - X2031 - X2100 + 4 X2169 >= 0
 C1884: - X1545 + X1893 >= 0
 C1927: - 99999 X1896 - 2 X1898 - 2 X1900 + X1943 >= -99999
 C1936: - 99999 X1942 - 1.414213562373095 X1955 - X1956 + X2174 >= -99999
 C1937: X1943 - X1957 = -2
 C1939: X1953 - X1954 - X1959 = 0
 C1940: - X1953 + X1955 - 99999 X1960 >= -99999
 C1941: - X1954 + X1955 + 99999 X1960 >= 0
 C1964: X2168 + X2169 + X2170 + X2171 - 4 X2172 <= 0
 C1973: X1911 + X1970 <= 1
 C1996: 99999 X1965 - 4 X1966 - 10 X1967 - 10 X1968 - 4 X1969 + X2013
   <= 99999
 C1997: - 99999 X1965 - 4 X1966 - 10 X1967 - 10 X1968 - 4 X1969 + X2013
   >= -99999
 C2004: - 99999 X2011 - 1.414213562373095 X2024 - X2025 + X2174 >= -99999
 C2006: X2013 - X2027 = 6
 C2007: X2022 - X2023 - X2028 = 0
 C2008: - X2022 + X2024 - 99999 X2029 >= -99999
 C2009: - X2023 + X2024 + 99999 X2029 >= 0
 C2012: X2030 <= 0
 C2013: - X1715 + X2031 <= 0
 C2022: X2032 <= 0
 C2027: X2033 <= 0
 C2029: X2030 + X2031 + X2032 + X2033 - X2034 >= 0
 C2078: X2099 <= 0
 C2083: X2100 <= 0
 C2084: - X1798 + X2101 <= 0
 C2091: X2102 <= 0
 C2093: X2099 + X2100 + X2101 + X2102 - X2103 >= 0
 C2821: X3129 + X3422 + X3715 = 1
 C54: X78 + X80 + X84 + [ X74 * X76 ] >= 1
 C200: X232 + X234 + 3 X235 + [ X227 * X229 ] <= 3
 C206: X232 + X234 + 3 X238 + [ X228 * X230 ] <= 3
 C652: - X934 + [ X658 * X703 + X727 * X772 + X796 * X841 + X865 * X910 ]
   = 0
 C687: X658 - X704 + [ - X673 * X727 - X683 * X796 - X693 * X865 ] = 0
 C821: X796 - X842 + [ - X658 * X801 - X727 * X811 - X831 * X865 ] = 0
 C886: X865 - X910 + [ - X693 * X865 - X762 * X865 - X831 * X865 ] = 0
 C1532: X1539 + X1541 + X1545 + [ X1535 * X1537 ] >= 1
 C1707: X1709 + X1711 + 3 X1715 + [ X1705 * X1707 ] <= 3
 C1790: X1793 + X1795 + 3 X1798 + [ X1790 * X1791 ] <= 3
 C1866: - X2172 + [ X1896 * X1941 + X1965 * X2010 + X2034 * X2079
   + X2103 * X2148 ] = 0
 C1901: X1896 - X1942 + [ - X1911 * X1965 - X1921 * X2034 - X1931 * X2103 ]
   = 0
 C1969: X1965 - X2011 + [ - X1896 * X1970 - X1990 * X2034 - X2000 * X2103 ]
   = 0
Bounds
 X2 = 3
 X3 = 4
 X705 free
 X706 free
 X710 free
 X711 free
 X712 free
 X713 free
 X715 free
 X717 free
 X718 free
 X719 free
 X721 free
 X843 free
 X844 free
 X845 free
 X846 free
 X847 free
 X849 free
 X850 free
 X853 free
 X854 free
 X856 free
 X857 free
 X858 free
 X859 free
 X945 free
 X1532 = 3
 X1533 = 4
 X1943 free
 X1953 free
 X1955 free
 X1956 free
 X1957 free
 X1959 free
 X2013 free
 X2022 free
 X2023 free
 X2025 free
 X2027 free
 X2028 free
 X2174 free
 X2183 free
Binaries
 X74 X76 X78 X80 X84 X227 X228 X229 X230 X232 X234 X235 X238 X653 X654 X655
 X656 X657 X658 X659 X660 X661 X662 X673 X683 X693 X703 X704 X722 X723 X724
 X725 X726 X727 X762 X772 X793 X796 X797 X798 X799 X800 X801 X811 X831 X841
 X842 X852 X862 X865 X910 X930 X931 X932 X933 X934 X946 X1239 X1535 X1537
 X1539 X1541 X1545 X1705 X1707 X1709 X1711 X1715 X1790 X1791 X1793 X1795
 X1798 X1891 X1893 X1896 X1898 X1900 X1911 X1921 X1931 X1941 X1942 X1960
 X1962 X1965 X1966 X1967 X1968 X1969 X1970 X1990 X2000 X2010 X2011 X2029
 X2030 X2031 X2032 X2033 X2034 X2079 X2099 X2100 X2101 X2102 X2103 X2148
 X2168 X2169 X2170 X2171 X2172 X2184 X2477 X3129 X3422 X3715
Generals
 X2 X3 X705 X706 X709 X710 X711 X712 X713 X715 X716 X717 X718 X719 X721
 X843 X844 X845 X846 X847 X848 X849 X850 X853 X854 X855 X856 X857 X858 X859
 X1532 X1533 X1943 X1953 X1954 X1955 X1956 X1957 X1959 X2013 X2022 X2023
 X2024 X2025 X2027 X2028
General Constraints
 v0s1o1vs_dOut_absXY: X710 = ABS ( X713 )
 v0s1o1d_i_sj_<-_absX: X715 = ABS ( X719 )
 v0s1o1d_i_sj_<-_absXY: X718 = ABS ( X721 )
 v0s1o3vs_dOut_absX: X845 = ABS ( X849 )
 v0s1o3vs_dOut_absY: X846 = ABS ( X850 )
 v0s1o3d_i_sj_<-_absX: X853 = ABS ( X857 )
 v0s1o3d_i_sj_<-_absY: X854 = ABS ( X858 )
 v0s1o3d_i_sj_<-_absXY: X856 = ABS ( X859 )
 v1s1o1d_i_sj_<-_absX: X1953 = ABS ( X1957 )
 v1s1o1d_i_sj_<-_absXY: X1956 = ABS ( X1959 )
 v1s1o2d_i_sj_<-_absY: X2023 = ABS ( X2027 )
 v1s1o2d_i_sj_<-_absXY: X2025 = ABS ( X2028 )
End
